 $contrl scftyp=uhf dfttyp=b3lyp runtyp=hessian
 icharg=0 mult=3 ispher=1 maxit=200 $end
 $system mwords=500 $end
 $SCF DIRSCF=.T. SHIFT=.t. damp=.t. $END
 $statpt nstep=400 $end
 $dft nleb0=302 nrad0=96 DC=.t. IDCVER=3 $end
 $basis gbasis=cct $END
 $guess guess=moread norb=146 $end
 $DATA
 C3H4
C1
CARBON      6.0      0.000417251         0.023477805        -0.727075013
CARBON      6.0     -0.811542633         0.391829636         0.436824334
CARBON      6.0      0.812300919         0.391911037         0.436415492
HYDROGEN    1.0      0.001529255        -0.951971917        -1.205710612
HYDROGEN    1.0     -0.002009902         0.844830500        -1.466911614
HYDROGEN    1.0     -1.453261603        -0.349409590         0.904452633
HYDROGEN    1.0      1.452566712        -0.350667470         0.904008075
 $END

--------------- MEX SEARCH NSERCH=  30 ---SECOND STATE ---------------
--- OPEN SHELL ORBITALS --- GENERATED AT Tue Nov  5 19:09:57 2019
 C3H4                                                                           
E(U-B3LYP)=     -116.4738321827, E(NUC)=   61.8586832778,    4 ITERS
 $VEC  
 1  1 8.30159361E-03-3.19191488E-04 1.73688829E-03-4.70110782E-03-7.37566737E-05
 1  2 1.06333429E-04 8.30461353E-04 2.54480795E-04-7.19696035E-04-3.23821157E-03
 1  3 4.34282653E-04-2.85146238E-04-1.99095583E-03-7.80962003E-05 6.92904203E-05
 1  4 8.80577998E-06 7.49048663E-06 2.46375956E-05 2.68218141E-06-1.11830376E-04
 1  5 2.74916680E-03-2.63733642E-03 9.14523032E-05 3.53977645E-04-1.34135690E-03
 1  6-5.75092361E-05 5.28593119E-04-4.52460247E-05-1.85613097E-04-5.65577059E-04
 1  7-8.42375912E-05 6.26280971E-04 1.61394328E-04-5.23568991E-04 8.85512558E-05
 1  8 7.75862666E-01 5.85852071E-03 4.10907439E-02 1.07613687E-02 7.24350701E-04
 1  9-1.54869782E-04-3.60806760E-04-3.06806913E-03-5.67644931E-03 1.84609226E-03
 1 10-8.56879606E-04-2.30913985E-03 3.36829085E-05 2.45518450E-04 1.14334521E-04
 1 11-3.59852971E-04 4.30750433E-04-9.24361499E-04-4.98860419E-04-4.99515878E-04
 1 12 7.77790340E-04-2.78274462E-04 1.88528432E-03-1.61136022E-03-1.21539502E-03
 1 13 3.51837577E-05 2.92186883E-04-4.13796812E-04-2.20144277E-04 7.02390453E-06
 1 14-4.00428186E-04 5.48142775E-04 3.53224222E-04-1.71865563E-04 7.63157074E-04
 1 15 5.93248830E-01 4.67006139E-03 3.15083981E-02 6.47284573E-03-6.12096150E-04
 1 16-1.47326470E-04-2.84705421E-04 1.92428921E-03-4.17042048E-03 1.45117489E-03
 1 17 1.01762362E-03-1.40879222E-03 7.69461349E-05 2.74888162E-04 5.16635633E-05
 1 18-3.26551725E-04-3.10436968E-04 7.13159461E-04-3.89700756E-04-4.60293159E-04
 1 19 6.26431982E-04-1.66138823E-04-1.22145808E-03 9.92255823E-04-7.87917327E-04
 1 20 7.92848784E-05 1.97609349E-04-2.88459510E-04-1.05566926E-04-3.03485045E-05
 1 21 1.96900378E-04 4.17357549E-04-3.03272205E-04-1.59553836E-04-5.43072251E-04
 1 22 2.51006993E-04-1.56114066E-03-2.50211947E-04-4.33177346E-06 7.85927115E-05
 1 23 1.78173445E-04 6.18875379E-05-3.16308044E-04-1.49415673E-03 1.63727902E-05
 1 24 4.93821517E-05-6.57549419E-05-2.12819253E-07 2.02921077E-05-1.60930432E-04
 1 25 3.67874795E-05-1.42130301E-03-9.33191470E-05 2.08643311E-05-9.02922787E-05
 1 26-2.51114951E-06 1.87402089E-05-2.06383231E-04-1.19867183E-03-5.91485993E-06
 1 27 2.59136392E-04-2.53221532E-04-1.31284846E-05 1.30164674E-05 3.34396439E-05
 1 28 2.76808357E-04-1.15068704E-02-2.63640151E-03-5.45389285E-04-6.87461224E-04
 1 29 3.80973087E-04-3.94968802E-03-3.81654663E-03 2.64905442E-03-1.79489381E-04
 1 30-2.15226047E-04 3.94715428E-04-1.16472857E-03 7.34328066E-04 8.15597330E-04
 1 31 2.50844479E-04-8.06911154E-03-1.91366859E-03 3.80593228E-04-4.94077442E-04
 1 32 2.61487451E-04 2.98272060E-03-2.74837730E-03 1.92245331E-03-1.77795278E-04
 1 33-1.44487241E-04 3.22282519E-04 8.84104867E-04-5.49590567E-04 6.14809080E-04
 2  1 1.12097333E-03-4.76505832E-05 2.35252712E-04-6.58490370E-04 5.52884134E-04
 2  2 1.50529187E-05 1.12298760E-04-1.92917592E-03-9.91180214E-05-4.51251843E-04
 2  3-3.22143741E-03-4.32549750E-05-2.81902433E-04-1.06731761E-05 9.97720998E-06
 2  4 6.95966142E-07-5.65213462E-05-1.94953592E-04-8.44457235E-07-1.62459545E-05
 2  5 3.75235019E-04-3.58989064E-04-7.42008712E-04-2.65262148E-03-1.82077345E-04
 2  6 4.33366180E-04 7.15531888E-05-6.31771632E-06-2.57127267E-05-7.56353277E-05
 2  7 6.28121633E-04 8.41114336E-05-1.20954338E-03-7.02859498E-05-6.66266529E-04
 2  8-5.92914009E-01-3.75710316E-03-3.10530777E-02-1.47932067E-02-3.30373282E-04
 2  9 1.00463533E-05 2.37064282E-04 3.88527187E-03 4.98121318E-03-1.23700427E-03
 2 10-7.13631167E-04 3.11130077E-03 1.47725778E-04 1.49518642E-04-2.29495059E-04
 2 11 7.99764173E-05-3.95944573E-04 6.79581490E-04 3.48098860E-04 1.02747616E-04
 2 12-4.84796593E-04 3.82048977E-04-2.25612228E-03 2.12747778E-03 1.47390075E-03
 2 13-4.36983062E-04-3.12987548E-04 4.22205568E-04 3.95439032E-04-1.31207404E-04
 2 14 7.26716894E-04-4.35240806E-04-1.40442596E-04 2.44778279E-05-7.32925288E-04
 2 15 7.75612181E-01 5.17007483E-03 4.07393317E-02 1.71329397E-02-5.08515550E-04
 2 16-4.98386277E-05-3.20971395E-04 4.53295513E-03-6.30998915E-03 1.66274805E-03
 2 17-4.81301481E-04-3.61500873E-03-1.47651969E-04-8.24949824E-05 2.54005265E-04
 2 18-1.71510283E-04-4.94127805E-04 8.99079480E-04-4.65763666E-04-2.35964463E-04
 2 19 6.75305315E-04-4.39340851E-04-2.66602142E-03 2.47916370E-03-1.73988737E-03
 2 20-4.31458979E-04 3.77564476E-04-5.15998836E-04-4.37425547E-04 1.25795583E-04
 2 21 8.08730165E-04 5.66489502E-04-2.29867200E-04-6.91303530E-05-9.08715798E-04
 2 22 3.32717053E-05-2.16008527E-04-3.55495875E-05 3.01596222E-05 1.06538741E-05
 2 23 2.33555219E-05-4.78060692E-04-4.45602893E-05-2.01613238E-04 2.11446419E-06
 2 24 7.02739232E-06-9.14185651E-06-4.48263789E-06-1.51738553E-04-2.18770569E-05
 2 25 6.71216310E-06-1.97900575E-04-1.61841656E-05-1.50654300E-04-1.23061271E-05
 2 26 6.83636292E-07-1.45871320E-04-2.50831672E-05-1.65512242E-04-7.89854092E-07
 2 27 3.46547562E-05-3.38649021E-05 8.78453011E-05-1.03194261E-04 5.05888592E-06
 2 28-5.97671242E-05 1.15035499E-02 2.39528572E-03 5.53373604E-04 6.45424198E-04
 2 29-4.03303283E-04 3.12273518E-03 3.56515802E-03-2.39659900E-03-2.58058822E-05
 2 30 2.49548093E-04-2.23742211E-04 9.12733142E-04-5.99974677E-04-6.55125039E-04
 2 31 1.30692523E-04-1.41170869E-02-2.99924512E-03 6.75234930E-04-8.04960855E-04
 2 32 4.89110469E-04 4.03683055E-03-4.45091948E-03 3.00701808E-03-1.69147711E-05
 2 33-3.02625619E-04 3.19540390E-04 1.18558738E-03-7.69483078E-04 8.48354702E-04
 3  1 9.79536756E-01 1.28314676E-02 5.05911322E-02 2.75305541E-02-1.29087188E-06
 3  2 1.97796186E-04 5.04843325E-04 2.28718630E-06-1.37266931E-03-4.95705683E-03
 3  3 7.42238488E-07 5.59171539E-04 1.85064754E-03-1.46422324E-03 9.41856890E-04
 3  4 5.22366349E-04-5.53907992E-06 3.51838873E-06 2.99390578E-04-3.35797496E-03
 3  5 3.12687775E-03 2.31097208E-04-9.22198617E-06 9.21344083E-06 1.21812550E-04
 3  6 1.07378023E-06-9.60523923E-04 9.38988959E-04 2.75272258E-04 1.11146667E-03
 3  7-4.05699971E-07-2.37125256E-03-1.03492739E-06 1.01340581E-03 7.88105406E-06
 3  8-6.52078683E-03-4.72105341E-04 5.89765320E-04-7.54084003E-03 3.31566862E-04
 3  9-1.67172345E-04-4.34714716E-04-1.09207971E-03 4.72238758E-04 1.48635992E-03
 3 10-1.62935857E-03 9.57728395E-04 2.74608067E-03 6.41509703E-05 8.45143236E-05
 3 11-1.48665294E-04 5.67967303E-05 1.86671260E-04-8.77121054E-05-1.39286960E-04
 3 12 8.69607888E-04-7.30320928E-04 3.56317607E-04 1.52407771E-03-4.62549230E-04
 3 13 3.57889840E-04-5.39266925E-04 1.48827276E-04 1.65465647E-04 1.34801401E-04
 3 14 1.93648816E-04-3.34474145E-04-6.73808423E-04 5.58036855E-04-6.54691105E-04
 3 15-6.54499209E-03-4.75435392E-04 5.89827500E-04-7.53413193E-03-3.32140507E-04
 3 16-1.66299826E-04-4.36027859E-04 1.10358020E-03 4.67801499E-04 1.50243433E-03
 3 17 1.63144224E-03 9.48175787E-04 2.75437190E-03 6.41393463E-05 8.53790151E-05
 3 18-1.49518361E-04-5.75752020E-05-1.88459116E-04-8.91690089E-05-1.36553921E-04
 3 19 8.75714021E-04-7.39160100E-04-3.60679846E-04-1.52659106E-03-4.64872055E-04
 3 20-3.59170811E-04-5.39888546E-04 1.49478491E-04 1.65617260E-04 1.35329925E-04
 3 21-1.94234008E-04-3.35876366E-04 6.76112218E-04 5.58719233E-04 6.54258432E-04
 3 22 9.19699095E-05-1.34280992E-02-2.50836223E-03 1.38921979E-06-1.31621299E-03
 3 23-6.17400354E-04 8.27305165E-06-5.74985587E-03-3.28715572E-03 9.59322136E-04
 3 24-1.29882096E-03 3.39498825E-04 3.17994674E-06 1.79512702E-06-1.39579218E-03
 3 25 1.21164100E-04-1.10194188E-02-2.18421111E-03-2.96006726E-06 9.58135585E-04
 3 26-8.70907171E-04-1.35804201E-05 3.99139613E-03-3.69901454E-03 8.47174269E-04
 3 27-5.64134896E-04-2.83039373E-04 5.23434134E-06-4.99762227E-06 1.55505063E-03
 3 28 1.80653209E-04 2.37275257E-04-1.64496623E-04 9.39783397E-05 1.46979333E-04
 3 29-3.16098695E-05-2.38219818E-04 2.38504405E-04 3.81005725E-04-9.10197717E-06
 3 30 1.11061825E-04-1.01959847E-04 5.40360641E-05 1.45179323E-04-3.42729230E-05
 3 31 1.81234679E-04 2.14711828E-04-1.68718136E-04-9.30966030E-05 1.46781057E-04
 3 32-3.10820270E-05 2.44435406E-04 2.34811576E-04 3.86953398E-04-9.82793264E-06
 3 33 1.12051167E-04-1.02223234E-04-5.34755542E-05-1.46201276E-04-3.35058693E-05
 4  1-2.58807631E-02 2.97878584E-01 6.94686785E-02 7.74759124E-02 2.55666112E-06
 4  2 2.36198714E-02 6.83181356E-02-2.31438967E-05 2.13245440E-02 6.31204391E-02
 4  3-9.20681821E-06-5.55390190E-03 8.56497967E-04-4.92668542E-03-3.11173662E-03
 4  4 8.03842204E-03-1.16046600E-05 9.70043032E-06 4.49951606E-03-7.63466517E-03
 4  5-4.58419906E-03 1.22188642E-02-1.49509631E-05 5.88004213E-06 4.36763690E-03
 4  6 2.69488759E-06-4.51814550E-03 3.04992966E-03 2.92143398E-04 2.49261209E-03
 4  7 8.67230105E-07-6.58452212E-03-4.48280121E-06 5.76958489E-03 9.43239742E-06
 4  8-2.08104662E-02 2.54914338E-01 6.30747235E-02 8.09048256E-02 5.92490078E-02
 4  9-1.96370935E-02-3.90154297E-02 5.86351519E-02-2.43041216E-02-3.77672814E-02
 4 10 7.54515985E-03-3.93524358E-03-6.73194117E-03 4.81274353E-03-3.36046509E-03
 4 11-1.45227844E-03-2.50298419E-03-7.22514153E-03 4.97922429E-04 6.17420878E-03
 4 12-4.03677282E-03-2.13743596E-03-1.88563137E-03-8.62650862E-03-1.53786648E-03
 4 13 2.18089542E-03 1.94729393E-03-1.82885483E-04-2.29071179E-03-1.62573551E-03
 4 14-3.58546286E-03 1.87110214E-03 6.59484606E-04-3.21857175E-04 2.63861768E-03
 4 15-2.08203797E-02 2.54947166E-01 6.30769771E-02 8.09906445E-02-5.92813855E-02
 4 16-1.96858290E-02-3.89927995E-02-5.86651276E-02-2.43788194E-02-3.77156543E-02
 4 17-7.59956719E-03-3.93551748E-03-6.75404782E-03 4.81609568E-03-3.35391663E-03
 4 18-1.46217905E-03 2.50863158E-03 7.22818522E-03 5.06491738E-04 6.18637539E-03
 4 19-4.03564322E-03-2.15073217E-03 1.88606224E-03 8.64043180E-03-1.53170559E-03
 4 20-2.18363282E-03 1.95070480E-03-1.79830484E-04-2.29211872E-03-1.62848459E-03
 4 21 3.58681990E-03 1.86975250E-03-6.57169043E-04-3.25026405E-04-2.64628315E-03
 4 22 3.19862640E-02 2.34824016E-02-2.93897194E-03-5.87501212E-07 1.86407826E-03
 4 23 1.03846480E-03 7.58494035E-06-2.26462652E-03 3.06852151E-03-7.56520976E-05
 4 24-2.41861074E-04 3.17513172E-04 2.76808544E-06 1.05309364E-06 1.51742374E-04
 4 25 3.88827253E-02 3.31346546E-02 2.97757678E-03 3.65984658E-06-1.59381638E-03
 4 26 3.23822690E-03-6.71945883E-06 3.95301942E-03 3.09912482E-03-1.75042241E-04
 4 27-1.34125940E-03 1.51630164E-03 5.41051804E-06 1.86815326E-06-2.17865897E-04
 4 28 2.85983375E-02 1.99791764E-02 1.44124509E-03 1.76058835E-03 8.29918318E-04
 4 29-1.22656700E-03 1.34565082E-03-3.15923668E-03-8.05786435E-04 5.21297172E-04
 4 30-5.10286118E-04-1.10110533E-05-1.82998748E-04-6.28518138E-04 8.84380625E-05
 4 31 2.86422838E-02 1.99946125E-02 1.46096185E-03-1.76708892E-03 8.31516305E-04
 4 32-1.23170546E-03-1.34829128E-03-3.17796029E-03-8.03298680E-04 5.28273560E-04
 4 33-5.19486677E-04-8.78688298E-06 1.81343382E-04 6.32510485E-04 8.88691230E-05
 5  1 2.67624430E-05-4.51432330E-04-1.16907049E-04-1.07566479E-04 9.02059521E-02
 5  2-1.19975653E-04 2.70311382E-04 9.97191217E-02-1.15574535E-04 2.58881336E-04
 5  3 2.59760197E-02-2.67586945E-06 1.43083291E-04 8.23457601E-06-1.54637775E-05
 5  4 7.22920146E-06 2.06695933E-03 9.91007764E-03 1.06854314E-05-2.23306758E-06
 5  5-1.39485459E-05 1.61816135E-05 3.58672462E-04 1.20609010E-02 1.04010525E-05
 5  6-8.65086969E-04 3.35173530E-06 6.10699880E-06-2.17046226E-06-4.98287485E-06
 5  7-1.20122376E-03-3.21052383E-06 2.36185972E-03-2.32636253E-06 5.56791404E-04
 5  8 1.57789218E-02-3.08340682E-01-7.99856004E-02-1.78489065E-01 6.50817814E-02
 5  9 4.10199305E-02 4.80357943E-03 6.75185505E-02 4.03135013E-02 1.40759432E-02
 5 10 1.65512222E-02 1.20766337E-02 7.21993731E-03 4.37125809E-03-3.30341826E-03
 5 11-1.06783983E-03-1.54429806E-03 4.07212993E-03 1.94301741E-03 4.24356759E-03
 5 12-3.22209581E-03-1.02147177E-03 6.04520919E-04 6.79989767E-03 1.17454882E-03
 5 13 4.07906726E-04-5.32550854E-04 1.56043076E-03-4.47774585E-04-8.29473577E-04
 5 14 1.27651363E-03-1.26406397E-03-1.82377793E-03 1.16226653E-03-2.13885166E-03
 5 15-1.58053966E-02 3.08770111E-01 8.00925547E-02 1.78537277E-01 6.49037752E-02
 5 16-4.12340317E-02-4.62195897E-03 6.73173254E-02-4.05562492E-02-1.38217870E-02
 5 17 1.65311074E-02-1.21316202E-02-7.08909448E-03-4.36025432E-03 3.32081308E-03
 5 18 1.03944124E-03-1.53028378E-03 4.07656964E-03-1.93486986E-03-4.21062238E-03
 5 19 3.24493477E-03 9.65687613E-04 6.28978640E-04 6.79417648E-03-1.15951928E-03
 5 20 4.02289873E-04 5.36874588E-04-1.55865583E-03 4.43846245E-04 8.27861140E-04
 5 21 1.27920762E-03 1.26329509E-03-1.81893612E-03-1.16413909E-03-2.14212845E-03
 5 22-6.81091988E-05-8.97123462E-05-8.99523670E-06 1.63354144E-03-7.07507903E-06
 5 23 4.74764806E-06 4.52773370E-03-1.20611808E-05 1.18876314E-05-1.81690117E-06
 5 24-3.47237590E-06 5.28927707E-06 8.97532891E-04 9.28357814E-04 3.30017105E-06
 5 25-3.54594901E-04-4.71273118E-04-9.53877272E-05 1.89992132E-03 2.93394641E-05
 5 26-2.91707021E-05 4.75492447E-03 3.37195794E-05-2.82901697E-05 1.01393144E-05
 5 27-4.48942049E-06-5.64989395E-06-7.03412439E-04 1.16480674E-03 1.16045396E-05
 5 28-1.03761574E-01-1.25732305E-01-3.23767227E-02-5.67172888E-03-6.37659948E-03
 5 29 5.08058877E-03-5.86517082E-03-3.78969218E-03 6.33540287E-03-7.66214808E-05
 5 30-1.02308526E-04 1.78930007E-04-1.56227146E-03 1.49208048E-03 1.53128916E-03
 5 31 1.03896780E-01 1.25906880E-01 3.24027985E-02-5.66934056E-03 6.39477224E-03
 5 32-5.08516392E-03-5.86393791E-03 3.80127031E-03-6.33958169E-03 7.34964626E-05
 5 33 1.06087842E-04-1.79584304E-04-1.56336147E-03 1.49083560E-03-1.53471779E-03
 6  1-1.74658972E-02 3.00862973E-01 7.48869760E-02 1.83822961E-01 5.87169366E-05
 6  2-8.38694496E-03-1.12443490E-01 6.51336626E-05-2.90280124E-03-1.07771617E-01
 6  3 2.64483258E-05-2.49685657E-03-3.11360443E-02-4.81599704E-03 7.67814061E-03
 6  4-2.86214357E-03-2.24287013E-05 2.78371040E-05-1.48550602E-03-7.22927127E-03
 6  5 8.10622595E-03-8.76954684E-04-3.88211703E-05 3.62204740E-05 1.04732509E-03
 6  6 3.96548222E-06-1.60127683E-03-1.06885165E-03 6.54640730E-04 3.46733367E-03
 6  7-4.78017379E-06-2.03331870E-03-5.40078895E-07 1.49369758E-03 7.80821609E-06
 6  8 8.97553002E-03-1.83332116E-01-4.67390443E-02-1.08034211E-01-3.87250175E-03
 6  9 1.97868599E-02-5.98872784E-02-1.33237049E-02 2.04364328E-02-6.49040351E-02
 6 10-5.48579049E-03 7.19711276E-03-1.58373693E-02-4.83283310E-03-1.23498891E-03
 6 11 6.06782201E-03-3.85146492E-04-6.75933095E-04 2.43374545E-03-9.42014962E-03
 6 12 2.02344584E-04 9.21780504E-03 2.75768170E-03-6.15085612E-05 3.50314420E-03
 6 13-1.79583165E-03-1.14831154E-03 6.85108666E-04 1.19188393E-03-3.37868013E-05
 6 14 1.59024095E-03-8.85382928E-04 8.19120047E-04 3.48737665E-04-6.03149526E-04
 6 15 8.91935271E-03-1.82250549E-01-4.64554339E-02-1.07482890E-01 4.11991211E-03
 6 16 1.96620594E-02-5.98773016E-02 1.35574546E-02 2.03314523E-02-6.49262541E-02
 6 17 5.55576125E-03 7.17888065E-03-1.58321863E-02-4.83784346E-03-1.22836352E-03
 6 18 6.06620698E-03 3.75929192E-04 6.92740462E-04 2.42515908E-03-9.42243644E-03
 6 19 2.02848358E-04 9.21958809E-03-2.75297561E-03 8.13251841E-05 3.48882377E-03
 6 20 1.79635342E-03-1.14480649E-03 6.82769498E-04 1.19454869E-03-3.51812833E-05
 6 21-1.58657555E-03-8.80850124E-04-8.23485474E-04 3.41370387E-04 5.97510960E-04
 6 22 1.01077376E-01 1.20736932E-01 3.10062336E-02-9.08427023E-06 9.44116983E-03
 6 23 2.71458681E-03-1.16680729E-05 8.73464143E-03 3.25517769E-04-9.89318495E-04
 6 24 2.46828944E-03-1.47897095E-03-2.99783959E-06-1.00932404E-06 1.15371741E-03
 6 25 1.09126133E-01 1.33935881E-01 3.14657859E-02 2.76396943E-05-8.61296260E-03
 6 26 5.87810156E-03 3.87791113E-05-8.89192808E-03 1.56000995E-03-1.20359555E-03
 6 27 1.61110488E-03-4.07509330E-04-1.06740921E-05 1.02648786E-05-2.20724141E-03
 6 28-6.08392606E-02-7.43364330E-02-1.91091053E-02-4.00183812E-03-3.74815609E-03
 6 29 1.80111515E-03-5.52246667E-03-2.71796268E-03 8.36156829E-04-6.75366195E-04
 6 30-9.77503654E-05 7.73116560E-04-1.17066665E-03 5.58200966E-04 6.55462069E-04
 6 31-6.04759205E-02-7.38591871E-02-1.89779281E-02 3.97551199E-03-3.73227337E-03
 6 32 1.78351378E-03 5.48466317E-03-2.70830133E-03 8.02472569E-04-6.73714986E-04
 6 33-9.97305865E-05 7.73445572E-04 1.16604926E-03-5.50599328E-04 6.50068315E-04
 7  1 2.85474064E-03-3.61412809E-02-1.03794554E-02-4.07187500E-02-1.54884913E-04
 7  2 1.64222149E-01 8.13201252E-02-1.62696769E-04 1.77774416E-01 8.76848594E-02
 7  3-7.71340567E-05 7.06015281E-02 2.26229956E-02-7.46866149E-04-4.28143141E-03
 7  4 5.02829756E-03 4.59532669E-06 5.07642582E-06 2.22407749E-03-2.57639866E-03
 7  5-4.78727855E-03 7.36367721E-03 1.14957979E-05-7.59909651E-06 8.39538096E-03
 7  6 4.19179109E-06-3.61825839E-03 2.78242690E-04-6.39811083E-04-2.09730741E-03
 7  7-7.94490273E-08 1.72400567E-03-5.54442887E-06 5.49421412E-03-1.44836822E-06
 7  8 2.29967395E-03-2.29906100E-03-1.58264180E-03-1.41224341E-02 1.02705949E-01
 7  9 8.95815849E-02-6.89459805E-02 1.12441165E-01 1.05497827E-01-7.52887262E-02
 7 10 3.19986143E-02 3.66450232E-02-2.26681451E-02 4.38151556E-03-6.01701845E-03
 7 11 1.63550289E-03-8.24917270E-04-3.45744947E-03 3.39728939E-04 5.82260765E-03
 7 12-8.45426024E-03 2.63165259E-03 3.15650632E-03-5.77736369E-03-2.89081207E-03
 7 13 2.01529679E-03-3.32300943E-05 1.40977238E-03-2.04153258E-04-3.17721533E-03
 7 14-3.54642344E-03 1.28580721E-03 8.42619072E-04 2.48736108E-04-6.18948221E-04
 7 15 2.29180239E-03-2.06601977E-03-1.52293333E-03-1.38309027E-02-1.02583188E-01
 7 16 8.95938702E-02-6.87733731E-02-1.12290301E-01 1.05471549E-01-7.50647943E-02
 7 17-3.19678368E-02 3.65933747E-02-2.25954906E-02 4.40641947E-03-6.02708294E-03
 7 18 1.62066348E-03 8.18774779E-04 3.46413756E-03 3.38204460E-04 5.85907037E-03
 7 19-8.45737702E-03 2.59830665E-03-3.17756582E-03 5.78891958E-03-2.89764215E-03
 7 20-2.02261533E-03-2.76062893E-05 1.40912303E-03-2.06400637E-04-3.18010330E-03
 7 21 3.55143649E-03 1.28956636E-03-8.37813260E-04 2.43438361E-04 6.13236149E-04
 7 22-1.20286441E-01-1.58545695E-01-5.51907970E-02 1.08726034E-05-9.07081661E-03
 7 23-5.84954070E-03 9.23781227E-06-6.14412994E-03-2.87112307E-03 1.36144104E-03
 7 24-1.17861666E-03-1.82824388E-04 4.71673330E-06 2.61865854E-06-2.53519951E-03
 7 25 2.91721946E-02 4.29510814E-02 3.93012652E-03 6.22902971E-06 7.55422548E-04
 7 26 5.12983641E-03 3.18326686E-06 5.05733344E-03 8.94145306E-03-5.44367209E-04
 7 27-2.28756365E-03 2.83193086E-03 1.94098678E-06 9.48513982E-06-7.79193675E-04
 7 28-9.12638499E-02-1.19536675E-01-4.35121881E-02-5.41244795E-03-5.14783480E-03
 7 29 4.01599119E-03-3.46106437E-03-5.11936980E-04 2.68763488E-03-4.70327465E-04
 7 30 3.20393877E-04 1.49933588E-04-1.30514169E-03 1.24654823E-03 9.41647158E-04
 7 31-9.11275465E-02-1.19444862E-01-4.34893801E-02 5.39199226E-03-5.15499911E-03
 7 32 4.01431898E-03 3.46126874E-03-5.37040102E-04 2.71696029E-03-4.58977624E-04
 7 33 3.11431853E-04 1.47545771E-04 1.30554502E-03-1.24432453E-03 9.44883103E-04
 8  1 1.31860217E-03-4.76218386E-02-1.00229897E-02-3.10566732E-02-2.91356900E-04
 8  2 1.46958147E-01-1.47980222E-01-2.94785715E-04 1.63316979E-01-1.58440876E-01
 8  3-8.64678985E-05 6.76458521E-02-6.78251884E-02 1.15077545E-03 4.62783506E-03
 8  4-5.77861051E-03-2.10673461E-05 2.09734709E-05-1.06968180E-02 5.91682363E-03
 8  5 7.59727258E-03-1.35140962E-02-2.87080986E-05 1.74646639E-05-3.35124103E-03
 8  6 7.61366572E-06 1.44949231E-03-4.60598266E-03-5.99610498E-04 1.38782047E-03
 8  7-6.89057084E-06 4.79175373E-03-3.32423362E-06-1.34508750E-03-2.28369727E-06
 8  8-1.75412530E-03 7.75706001E-02 2.23277889E-02 8.37627489E-02-1.14452551E-01
 8  9 5.48683454E-02 5.27415609E-02-1.28567345E-01 7.57415074E-02 5.36591728E-02
 8 10-5.21554019E-02 3.29472056E-02 2.07777163E-02-3.80606221E-03 2.54662065E-03
 8 11 1.25944156E-03 7.25338501E-03 3.06151440E-03-7.17148921E-03-5.65156932E-03
 8 12 2.83535701E-03 2.81621231E-03 8.45591585E-03 6.32939224E-03-1.13264957E-02
 8 13-8.05912844E-04-2.58368385E-03-2.38666390E-03 2.92396880E-03 2.63584552E-03
 8 14-2.34442226E-04 5.66200106E-04 1.31568777E-03 5.42406831E-04-2.82278938E-03
 8 15-1.77474312E-03 7.82256711E-02 2.25112566E-02 8.40764074E-02 1.14704228E-01
 8 16 5.47282753E-02 5.30605382E-02 1.28828323E-01 7.56161559E-02 5.40012429E-02
 8 17 5.23199265E-02 3.29130910E-02 2.09378601E-02-3.80927152E-03 2.56835486E-03
 8 18 1.24091666E-03-7.26828640E-03-3.04987414E-03-7.18598544E-03-5.65553448E-03
 8 19 2.86586423E-03 2.78967024E-03-8.44517751E-03-6.31626996E-03-1.13166544E-02
 8 20 8.06547858E-04-2.59273027E-03-2.38884314E-03 2.93442845E-03 2.63131252E-03
 8 21 2.36019686E-04 5.73656858E-04-1.31811719E-03 5.44084232E-04 2.83167463E-03
 8 22-5.94999653E-02-8.45110424E-02-3.72857629E-02 5.09008552E-07-1.84450396E-03
 8 23-5.31453941E-03-7.99307907E-06 2.36516839E-03-1.11002843E-02 5.29666971E-04
 8 24 1.10075149E-03-1.63041846E-03-1.89555008E-06 3.38107192E-06-2.02871630E-03
 8 25 1.38218217E-01 2.06317185E-01 9.22985593E-02 2.86754542E-05-8.23975821E-03
 8 26 7.74889383E-03 4.50167341E-05-9.37617289E-03 5.11373653E-03-1.58722579E-03
 8 27 1.35197779E-03 2.35247994E-04-1.49083890E-05 1.11722115E-05-2.82732727E-03
 8 28 6.16061146E-02 8.52421801E-02 4.15165200E-02 1.50259408E-03 5.65479290E-03
 8 29-1.49810790E-03-9.20570967E-04 8.08782534E-03-3.37339595E-04-1.16736926E-03
 8 30 1.81250756E-03-6.45138309E-04 1.34637426E-03 5.02030775E-04-1.06525358E-03
 8 31 6.19158503E-02 8.57509402E-02 4.17586806E-02-1.49987166E-03 5.68235114E-03
 8 32-1.50155735E-03 9.09122188E-04 8.13729333E-03-3.50415396E-04-1.17673285E-03
 8 33 1.82793316E-03-6.51200306E-04-1.34676909E-03-5.05086530E-04-1.07137033E-03
 9  1-2.32416138E-06 5.63908713E-05 1.57450361E-05 1.59838806E-04 2.17746539E-01
 9  2 1.08975986E-04-1.88579755E-04 2.57985992E-01 1.61780034E-04-2.03328780E-04
 9  3 1.54077846E-01 1.01049126E-04-8.42498502E-05 7.42731039E-06 2.27579479E-05
 9  4-3.01852582E-05 8.15523137E-03 1.37073489E-02 4.52302146E-05 1.98876980E-05
 9  5 1.80678342E-05-3.79555321E-05 8.93576974E-03 1.92707373E-02 6.05160717E-05
 9  6-3.11650136E-03-5.16527886E-06-1.63031334E-05 5.21634736E-07 3.73389553E-06
 9  7-1.06396059E-03 1.81390531E-05 5.24518593E-03 6.40831405E-06 5.54994207E-03
 9  8 1.65903005E-04-5.21984326E-02-1.27995396E-02-2.40698461E-02-4.72768755E-02
 9  9-4.73036849E-02 1.68148543E-01-4.84358826E-02-5.75264067E-02 1.98493493E-01
 9 10-1.56806622E-02-4.05224812E-02 9.81292222E-02 6.72384725E-03 3.10587807E-03
 9 11-9.82972533E-03 6.39497585E-03-1.89464158E-03-6.07844249E-03 1.22408942E-02
 9 12 4.82820993E-03-1.70691042E-02 8.59237778E-03-5.96000094E-03-6.88178394E-03
 9 13 2.47335461E-03-1.46021555E-03 1.17626973E-03 4.44467435E-04-2.24606212E-03
 9 14-1.27897594E-04 6.67930674E-04-3.19045583E-03 1.51461731E-03-1.25150077E-03
 9 15-1.74283017E-04 5.28998064E-02 1.30015057E-02 2.47393689E-02-4.68196096E-02
 9 16 4.84632471E-02-1.68257726E-01-4.78832054E-02 5.90134810E-02-1.98613332E-01
 9 17-1.52769813E-02 4.14107876E-02-9.81112685E-02-6.72340067E-03-3.11282353E-03
 9 18 9.83622420E-03 6.36707000E-03-1.89199971E-03 6.08219007E-03-1.22358823E-02
 9 19-4.83803299E-03 1.70739153E-02 8.50692931E-03-5.96350630E-03 6.85988587E-03
 9 20 2.47597610E-03 1.45369586E-03-1.16694616E-03-4.13890572E-04 2.24115374E-03
 9 21-1.14223869E-04-6.75531179E-04-3.20764665E-03-1.53644709E-03-1.23849855E-03
 9 22 1.91922990E-04 2.97156448E-04 1.76098000E-04 4.34620670E-03 2.06801911E-05
 9 23 3.22200370E-06 1.17640493E-02 3.17257409E-05-6.75165415E-06-4.12632040E-06
 9 24 9.14823805E-06-5.02191766E-06 1.77716133E-03 1.34243392E-03 3.57710371E-06
 9 25-2.18485927E-04-2.87376362E-04-1.11483788E-04 6.13705481E-03 2.19076805E-05
 9 26-2.26070419E-05 1.65317627E-02 2.32373701E-05-4.47036859E-06 1.60513870E-05
 9 27-1.15952272E-05-4.45615977E-06-2.51958674E-03 3.05645575E-03 9.91469319E-06
 9 28 9.39985348E-02 1.28656909E-01 7.93799061E-02 4.45618083E-03 5.31560634E-03
 9 29-4.16219762E-04 1.64677856E-03 5.21604574E-04 7.99253459E-03 5.93356488E-04
 9 30 1.12621262E-03-1.71956911E-03 1.29402056E-03 3.82302356E-04-2.89613677E-04
 9 31-9.41605573E-02-1.28875391E-01-7.94822405E-02 4.46728381E-03-5.31012106E-03
 9 32 4.21899693E-04 1.66975001E-03-4.62765013E-04-7.99632822E-03-6.02032437E-04
 9 33-1.11855938E-03 1.72059181E-03 1.29112166E-03 3.75926602E-04 2.83495012E-04
10  1 8.36723384E-04-5.70177291E-02-1.38190751E-02-2.93143871E-03-3.18498391E-04
10  2-1.02307497E-01-9.99143073E-02-3.69892833E-04-1.15148873E-01-1.08515064E-01
10  3-2.66620361E-04-5.37857035E-02-4.54506285E-02-8.51844295E-03 1.00273537E-02
10  4-1.50891079E-03-1.91275592E-05-4.20431916E-05 1.04484250E-02-1.25252308E-02
10  5 1.28718899E-02-3.46659106E-04-2.30191401E-05-5.83791394E-05 1.81531131E-02
10  6 2.39011607E-06-7.12516261E-04 5.36271000E-05 1.57843479E-04-2.97243315E-03
10  7 1.00209002E-05 2.90048484E-03-1.32275774E-05 7.98097397E-04-1.04001683E-05
10  8-2.33301169E-05 8.10562748E-02 2.21080601E-02 9.10532040E-02 7.35764110E-02
10  9 1.47954258E-01 1.16624025E-01 9.47384556E-02 1.84923025E-01 1.42931370E-01
10 10 4.30443970E-02 1.15313432E-01 9.45942922E-02 4.47732467E-03 9.46687485E-04
10 11-5.42401216E-03 1.38709953E-03 9.53961096E-03 8.45220278E-04 8.66047815E-03
10 12 1.25657085E-03-9.91704900E-03 1.90457137E-03 1.60433373E-02-7.08410672E-04
10 13 4.30731812E-03-1.64108598E-04-6.17334070E-04 2.02338848E-03 2.62105456E-03
10 14-1.53173776E-03-1.79281399E-03-4.24713591E-03-1.80321369E-03-3.05626340E-03
10 15-1.39003274E-05 8.07278097E-02 2.20225903E-02 9.08024914E-02-7.32959035E-02
10 16 1.47869544E-01 1.17246949E-01-9.44077085E-02 1.84812628E-01 1.43654121E-01
10 17-4.28851972E-02 1.15205855E-01 9.49483943E-02 4.50717463E-03 9.41608439E-04
10 18-5.44878307E-03-1.40880297E-03-9.54110638E-03 8.36716385E-04 8.70932561E-03
10 19 1.23703769E-03-9.94636331E-03-1.93356793E-03-1.60338353E-02-7.01862980E-04
10 20-4.31575180E-03-1.67755601E-04-6.25616035E-04 2.02050535E-03 2.62263733E-03
10 21 1.53366664E-03-1.78328534E-03 4.25652200E-03-1.79543759E-03 3.06015827E-03
10 22 1.09879946E-01 1.61227853E-01 1.23888434E-01-2.01403088E-05 7.04648035E-03
10 23 1.81633557E-03-3.81075417E-05 8.74692485E-04-4.90274694E-03-8.58630039E-04
10 24 2.06903363E-03-1.21040359E-03-1.05673384E-05-5.56205853E-06 1.50385130E-04
10 25-2.74176314E-02-4.29597567E-02-2.15686371E-02-1.07599930E-05-3.85274064E-04
10 26-3.04850373E-03-2.26519146E-05-5.49987546E-03-4.17620623E-03-3.29994268E-04
10 27 1.20432651E-03-8.74332243E-04 7.32417640E-09-7.60060487E-06 7.90075509E-04
10 28-4.95106721E-02-6.72294111E-02-4.03031304E-02-1.90757756E-03 5.80044611E-05
10 29 4.63221414E-03 4.85742025E-03 9.20854103E-03 7.47310643E-03-3.77942841E-05
10 30 1.18144988E-03-1.14365560E-03 5.70848212E-04 1.33385527E-03 4.83675231E-04
10 31-4.92601534E-02-6.68690611E-02-4.00470852E-02 1.89378695E-03 6.39608322E-05
10 32 4.63764407E-03-4.86066366E-03 9.20513988E-03 7.51247857E-03-3.34407596E-05
10 33 1.18527634E-03-1.15183558E-03-5.72023691E-04-1.33493893E-03 4.91281279E-04
11  1 1.27741701E-04-3.07349230E-03-2.01187401E-03 3.93637444E-02-3.09061562E-04
11  2-6.68354346E-02 6.67198656E-02-3.68466114E-04-7.76046464E-02 8.40642260E-02
11  3-2.40357322E-04-6.68909948E-02 8.21781223E-02 1.08497194E-02 1.26233396E-03
11  4-1.21120534E-02-6.37003131E-06-5.63639746E-05 1.39035434E-02 1.78535592E-02
11  5-3.22822526E-03-1.46253340E-02 1.16431821E-05-6.12111853E-05 1.88968612E-02
11  6 4.74464015E-07-2.17802593E-03-4.24171192E-03 2.67456509E-03 3.01823034E-03
11  7 8.76852157E-06 2.67262337E-03-9.40508185E-06 2.47563330E-04-2.14093084E-05
11  8 8.62330310E-05 7.78622588E-02 2.32870782E-02 1.04916413E-01-1.41346476E-01
11  9 1.18860729E-01-1.23518296E-01-1.77474607E-01 1.55978182E-01-1.54540065E-01
11 10-1.41638599E-01 1.29824422E-01-1.02224288E-01-4.84271369E-03 2.84876735E-03
11 11 1.99394634E-03 1.73122947E-04-3.16520738E-03 2.62520265E-03-9.97120652E-03
11 12 3.47095917E-03 6.50024734E-03 6.82207588E-03-4.27691852E-03 4.40640245E-03
11 13-2.63165314E-03-1.50873075E-03 2.26315132E-03 4.38883245E-03-1.51500309E-03
11 14-3.02108706E-05-1.52133302E-03 3.56094405E-03-2.36465774E-03 1.35021943E-03
11 15 7.83088646E-05 7.75420165E-02 2.32052783E-02 1.04372954E-01 1.41450944E-01
11 16 1.18428612E-01-1.22606527E-01 1.77580335E-01 1.55437805E-01-1.53389507E-01
11 17 1.41677208E-01 1.29381028E-01-1.01388434E-01-4.80623721E-03 2.85563197E-03
11 18 1.95060524E-03-2.05987678E-04 3.19313154E-03 2.61464420E-03-9.90756690E-03
11 19 3.50095953E-03 6.40660736E-03-6.86404117E-03 4.31453181E-03 4.40035547E-03
11 20 2.62346117E-03-1.51303445E-03 2.26744978E-03 4.39964468E-03-1.53004473E-03
11 21 2.88200769E-05-1.51205838E-03-3.54856258E-03-2.36969595E-03-1.34199351E-03
11 22 3.89238465E-02 5.86590963E-02 5.72440458E-02-7.80800553E-06 7.52719407E-04
11 23 2.65075269E-03-6.77338132E-06-2.18918753E-03 5.43121797E-03 5.20008590E-04
11 24-3.55695941E-04-1.64312649E-04 6.70336902E-07-2.81840202E-06 1.05255113E-03
11 25-1.08540488E-01-1.66312447E-01-1.24286007E-01-3.82979943E-05 5.19048221E-03
11 26-2.18522591E-03-6.36765930E-05 5.24956613E-03 8.42026027E-03 1.12444148E-03