 $contrl scftyp=uhf dfttyp=b3lyp runtyp=hessian
 icharg=1 mult=1 ispher=1 maxit=200 $end
 $system mwords=500 $end
 $SCF DIRSCF=.T. SHIFT=.t. damp=.t. $END
 $statpt nstep=400 $end
 $dft nleb0=302 nrad0=96 DC=.t. IDCVER=3 $end
 $basis gbasis=cct $END
 $guess guess=moread norb=102 $end
 $DATA
 CH3O
C1
CARBON      6.0     -1.995582545         0.117805253        -2.265569762
HYDROGEN    1.0     -1.528874437        -0.977384735        -2.620119943
HYDROGEN    1.0     -1.117725795         0.783615545        -2.152576440
HYDROGEN    1.0     -2.643329831        -0.111549650        -1.396866419
OXYGEN      8.0     -2.488517472        -0.033521029        -3.440101183
 $END
 
--- OPEN SHELL ORBITALS --- GENERATED AT Sun Nov  3 16:59:56 2019
 CH3O                                                                           
E(U-B3LYP)=     -114.6214893588, E(NUC)=   35.7473773281,    4 ITERS
 $VEC  
 1  1 3.52987674E-04 7.97772086E-04 1.81616185E-05-1.05802752E-03-9.87853019E-05
 1  2 2.56339458E-05-1.69055127E-04-5.42779655E-04-2.64294331E-04-1.40946039E-03
 1  3 1.66371782E-04 5.05891969E-05 3.95791653E-04-1.17982620E-04-2.21993560E-04
 1  4 3.39976179E-04 3.11667865E-05 2.83998544E-04 6.56036035E-05-1.70687173E-04
 1  5 3.70589337E-05 1.33628239E-04-2.32494010E-04 2.32568744E-04 1.12627824E-04
 1  6-1.47948261E-04-2.03961406E-05 4.73202423E-05-1.00367113E-04-4.21294590E-05
 1  7 1.70391815E-05-2.13573081E-05 1.81454240E-04 1.27731407E-04-7.20248254E-05
 1  8-2.27973890E-04 2.19451979E-04 1.09043016E-04 5.23512141E-05-9.40138134E-05
 1  9-5.64133752E-06-1.40475958E-04 1.85427314E-04-6.40226352E-05-2.58562977E-06
 1 10 3.78776192E-06-1.20213215E-06-1.43385965E-04 1.35356048E-04-1.01816394E-04
 1 11 1.15183835E-04 4.71339812E-04-2.49685888E-05-6.67530744E-05-7.70234005E-05
 1 12 1.12198468E-05-5.80748202E-05-8.36792178E-05 3.40630764E-05 2.80079652E-06
 1 13 6.20250100E-05-6.48258065E-05-3.58904159E-07-7.05359587E-05-2.80531802E-05
 1 14 1.15182159E-04 4.71576577E-04-2.49665294E-05 8.10695220E-05 9.70364957E-06
 1 15-6.20686043E-05 9.79892058E-05 7.91989095E-06-4.34267904E-05 5.06352526E-05
 1 16 3.59284067E-05-8.65636594E-05-9.79923654E-06-5.87792119E-05-4.06394529E-07
 1 17 9.70599069E-01-4.28796459E-03 5.12135422E-02 2.46420107E-03 7.19192977E-04
 1 18 8.46819347E-05 1.55256487E-03-6.21266067E-04-8.62830042E-05-1.35668989E-03
 1 19-4.25768810E-05 7.24243228E-05-1.74691871E-07-6.94801181E-05-7.63251928E-05
 1 20 1.45805311E-04-4.72267480E-05 1.62906757E-04 2.36429664E-05 1.90258265E-04
 1 21 2.58225460E-04-4.48483725E-04 9.71109129E-05-4.76376648E-04-5.78527649E-05
 1 22 6.20450900E-05 1.15330053E-05-5.56047960E-05 8.56203364E-06 9.12786804E-06
 1 23 1.77731967E-05 6.54737942E-05-1.01015420E-04-2.40351839E-05-1.92830727E-06
 2  1 9.79706946E-01 1.27653595E-02 4.98469719E-02 1.76598942E-02-2.17879050E-04
 2  2-5.92722182E-04-1.14169020E-03 7.63325834E-04 6.31564889E-04 2.28354593E-03
 2  3 6.90534710E-04-4.21983640E-04 8.92032881E-04-2.06077371E-05-7.25791849E-04
 2  4 7.46399586E-04 1.03840583E-03-9.40995483E-05 3.54636868E-04 8.24837965E-04
 2  5-1.02053030E-03 1.95692330E-04 2.38900849E-03-1.29971407E-03-1.24073587E-04
 2  6 6.47475532E-04-1.53015338E-04-4.23645610E-04 8.99061367E-04 6.77951848E-04
 2  7 1.36378972E-03-1.09571618E-04-2.23246930E-03-6.93769748E-04 6.57298994E-04
 2  8 5.82232942E-04-2.99988670E-03-1.96249777E-03 1.06660079E-04-2.69923653E-04
 2  9-1.04456444E-04 6.77374225E-04-1.75355145E-03-7.08714215E-04 3.38165737E-04
 2 10-7.47717085E-04 4.09551348E-04 6.56087589E-04 1.92519481E-04-5.03069396E-04
 2 11 5.64361425E-05-9.84401762E-03-2.62251116E-03 9.97677726E-04 7.11571566E-04
 2 12 1.20763074E-04 4.02843883E-03 3.17428319E-03 5.50617072E-04-8.09459044E-04
 2 13-7.93029105E-05 8.88761955E-04-1.35558216E-03-2.05597834E-04-1.48854941E-04
 2 14 5.66973332E-05-9.84022927E-03-2.62146831E-03-7.07403613E-04-2.88875041E-04
 2 15 9.65198109E-04-3.03918095E-03-9.72869281E-04 4.05058542E-03-2.35268287E-05
 2 16 6.77366660E-04-6.53839831E-04-3.44700330E-04 1.36765726E-03 5.37318733E-04
 2 17-2.15130739E-04-6.78931550E-05 6.37850964E-04-5.50067074E-03 2.33214605E-04
 2 18 9.13026342E-05 5.79256214E-04-8.88137227E-04-3.43223712E-04-2.19998141E-03
 2 19-6.88382826E-04-3.88283083E-04-1.84946158E-03-1.32645099E-05-3.13102268E-05
 2 20 4.45747367E-05 1.65839332E-05 2.70866290E-05 1.30920634E-05 5.99787693E-04
 2 21 1.04430939E-03-1.64409709E-03-2.79226689E-04-1.22110474E-03-4.78002984E-04
 2 22 3.67397587E-04 1.41888592E-04-4.17595090E-04 6.37310219E-05 1.51128663E-04
 2 23 1.79661419E-04 4.09133942E-04-6.72577006E-04-2.54094544E-04-9.35788940E-05
 3  1-2.14147255E-02 2.15399886E-01 5.38141829E-02 2.26638365E-02-3.18310921E-02
 3  2-1.93072613E-02-8.71447925E-02-2.55878618E-02-2.21830832E-02-7.79469098E-02
 3  3-6.68863346E-04 5.32603150E-04-7.24086468E-04-4.91009646E-03-6.61586239E-03
 3  4 1.15259589E-02 1.77208102E-03 8.07816960E-03 4.75163203E-03-8.40882419E-03
 3  5-4.93338168E-03 1.33422059E-02-6.53006971E-04 9.42289773E-03 9.41236307E-03
 3  6 3.06834955E-03 4.13764354E-04-2.64212343E-03 2.79982907E-03 2.63180766E-03
 3  7 3.97857701E-03 9.12972899E-04-8.09519991E-03-3.35495220E-03 1.26798762E-03
 3  8 3.64997285E-02 3.28841762E-02 3.03477808E-03-3.58211369E-03 4.74247280E-03
 3  9-1.61605297E-03-2.75186581E-03 3.45930419E-03-1.46004755E-03 1.69856875E-05
 3 10 5.32592560E-04-5.49578247E-04-1.54135621E-03 8.25953325E-04-8.51951590E-04
 3 11 1.27148459E-02 8.25130999E-03-5.71807333E-04-1.72594853E-04-6.64147531E-05
 3 12-7.69165044E-04 2.41030995E-03 8.04724765E-04-3.81407441E-03-5.10759884E-04
 3 13-2.20128546E-04 7.30888430E-04-5.04800465E-04 9.70657686E-04 6.38968213E-04
 3 14 1.27119013E-02 8.25729793E-03-5.68794904E-04-3.85621304E-04-1.91143536E-04
 3 15-6.62011826E-04-3.59013914E-03-2.71616196E-03-8.42848192E-04-8.15192565E-04
 3 16-1.09604947E-04 9.24797512E-04-4.99444470E-04 8.30227891E-04 4.51097008E-04
 3 17-1.43574171E-02 4.64404754E-01 1.34925743E-01 2.39324013E-01 3.70183398E-02
 3 18 5.32037382E-03 8.10499842E-02 4.51452691E-02 4.94227573E-03 9.70097435E-02
 3 19 1.29856875E-02-4.47966103E-05 2.61623865E-02-2.08387883E-03-2.52428766E-03
 3 20 4.60816649E-03-8.61070518E-04 4.64074625E-03 9.78299423E-04-5.19944232E-03
 3 21-4.93909353E-03 1.01385359E-02-4.56346227E-03 1.22237849E-02 1.48972899E-03
 3 22-2.29940861E-03-2.91624034E-04 1.73642374E-03-6.69970983E-04-4.19475667E-04
 3 23-6.74113814E-04-1.91018124E-03 3.75909420E-03 1.06122568E-03-3.28026854E-04
 4  1-1.89241443E-02 3.88664385E-01 1.03174233E-01 1.57947675E-01 4.39269579E-02
 4  2-2.40491609E-02 6.02087955E-02 4.79660885E-02-3.53968950E-02 5.48634787E-02
 4  3 1.83101340E-02-1.10983474E-02 2.38099834E-02 1.10997320E-03 3.55665931E-03
 4  4-4.66663251E-03 1.86235792E-03-6.60028220E-03 1.93804357E-03 1.88741639E-04
 4  5 7.65983789E-03-7.84857953E-03-3.09195396E-03-6.59756992E-03 2.22358715E-03
 4  6-1.76212347E-04-8.24247954E-04 4.91917386E-04 1.69612638E-03 1.13146396E-03
 4  7 2.79736926E-03-1.79144038E-03-2.56095559E-03-5.90281710E-04 1.60683281E-03
 4  8 8.01975220E-02 1.10343357E-01 4.24523930E-03-2.47601456E-03 7.35540651E-03
 4  9 3.71100360E-03-4.47104058E-03 1.40585513E-02 7.61994203E-03-1.02640122E-03
 4 10 1.95721984E-03-9.30818623E-04-1.49162755E-03-6.78732033E-04 1.70441928E-03
 4 11 8.58231726E-02 1.05897848E-01 5.04109695E-03-6.84781544E-03-6.27567283E-03
 4 12-4.46163030E-05-9.76919264E-03-1.01405508E-02 1.73089532E-04 8.81746453E-04
 4 13 5.24758709E-04-1.40650516E-03 2.36841393E-03-4.47199963E-05 8.63867417E-05
 4 14 8.58217445E-02 1.05956784E-01 5.05257876E-03 6.37293243E-03 1.47978972E-03
 4 15-6.59402721E-03 1.01350248E-02 1.54076929E-03-9.69670619E-03 5.24800309E-04
 4 16-1.20515007E-03 6.80349759E-04 5.47125542E-04-2.37675908E-03-5.00185152E-04
 4 17 9.92059560E-04-2.73516786E-01-8.43828608E-02-2.30488451E-01 4.88118686E-02
 4 18-9.73007939E-03 8.70341087E-02 5.51454775E-02-1.31939362E-02 9.57159855E-02
 4 19 2.19877023E-02-2.45547552E-03 4.14762129E-02-3.70577337E-04-2.21480123E-03
 4 20 2.58537856E-03 3.40751820E-04 2.55392054E-03-5.73515315E-04-2.64423880E-04
 4 21-5.66320926E-03 5.92763314E-03 1.63676005E-03 5.57577224E-03-1.94182809E-03
 4 22-9.85567690E-04 5.88831256E-04-5.25856188E-06-4.62668612E-04 3.99237343E-04
 4 23-1.73932478E-04-3.92182241E-04 1.49621029E-03-3.27331417E-04-1.05189950E-03
 5  1-4.17921358E-03 1.08650259E-01 3.01984267E-02 7.76368729E-02-6.40063706E-02
 5  2 1.75017564E-01 7.74585633E-02-7.79960218E-02 1.99409472E-01 7.80217586E-02
 5  3-2.47661617E-02 5.90923354E-02 1.97379213E-02 7.98809615E-03-9.33305529E-03
 5  4 1.34495914E-03 5.14870981E-03 4.18925464E-03-1.44194709E-02 1.12644029E-02
 5  5-9.34004673E-03-1.92435620E-03 4.80658350E-04 7.67962842E-03-2.30148870E-02
 5  6 1.60755811E-03-2.24466478E-03-5.86628099E-05-1.50890679E-03-3.28804142E-03
 5  7-3.59769227E-04 3.36674584E-03-1.79699630E-03 4.52044061E-03 1.54861797E-03
 5  8-1.30766274E-01-2.23047304E-01-4.43582647E-02 6.20141749E-03-9.92702992E-03
 5  9 7.54481572E-04 1.60202208E-02-2.22171313E-02 6.00322354E-03 1.26648270E-03
 5 10-2.30091190E-03 1.03442920E-03 4.20238807E-03-1.59611431E-03-2.55838282E-04
 5 11 6.08971558E-02 8.38651528E-02 1.47965470E-02-6.96314781E-03-1.15758899E-03
 5 12 2.97881034E-04-1.30495511E-02 6.85168385E-04 3.47988855E-03 2.70906616E-03
 5 13-1.51138459E-03-1.19768157E-03 1.22474816E-03-2.15987665E-04-5.55479510E-04
 5 14 6.06748539E-02 8.35731378E-02 1.47707807E-02 2.82755909E-03 4.58918221E-03
 5 15-4.53605224E-03 5.02679882E-03 1.12964848E-02-5.45551910E-03-1.98081562E-04
 5 16-1.53113808E-04 3.51195371E-04 1.57363251E-03-1.19174559E-03-2.27752545E-03
 5 17 4.90207228E-04 4.78684382E-02 1.56213912E-02 4.05158113E-02-1.09563422E-01
 5 18 1.82913222E-01-5.04180393E-03-1.34558858E-01 2.25965880E-01-4.60913616E-03
 5 19-7.18468204E-02 1.20808155E-01-2.24631127E-03-1.92254569E-03 1.18548993E-03
 5 20 7.37055754E-04 2.69231935E-03-3.49290239E-03 5.77074799E-03-6.64343809E-03
 5 21 2.74872668E-03 3.89471141E-03 1.05187886E-02-1.15737463E-02 1.99925167E-02
 5 22 2.13871693E-03-2.11240048E-03 1.22283609E-03 3.67610465E-04-2.57341913E-03
 5 23-1.53124126E-03 9.32812362E-04-1.33814861E-03 2.46647217E-03 3.04622626E-03
 6  1 5.95298374E-06-9.66184663E-05-2.73736971E-05-6.07170381E-05 1.94631801E-01
 6  2 1.13985965E-01-9.64648121E-02 2.15079868E-01 1.25951407E-01-1.06591374E-01
 6  3 7.72889515E-02 4.52646022E-02-3.83022964E-02-1.80556419E-03 4.42101738E-04
 6  4 1.36346245E-03-1.85836878E-04-1.08027851E-03-1.12919142E-03-6.06719166E-03
 6  5-6.05990205E-03 1.21270937E-02-8.02467321E-03-1.24014101E-02-5.31520188E-03
 6  6-1.12526606E-03 4.34433711E-04-4.57242865E-03-1.60726011E-03 4.65150936E-03
 6  7-4.38868923E-04 1.48304741E-03 1.94857177E-03 1.02440613E-03 3.48724216E-03
 6  8 1.17412461E-04 1.90985006E-04 2.85791309E-05 3.39771899E-03 2.00615795E-03
 6  9-1.68722718E-03 1.30065372E-02 7.65183005E-03-6.45563592E-03-2.28422799E-03
 6 10 2.16483406E-03 1.19393935E-04 1.35179083E-03 5.13378885E-04-1.13747755E-03
 6 11 1.10468385E-01 1.54457297E-01 1.87254140E-02-8.63413942E-03-6.92472902E-03
 6 12-4.33615837E-03-9.64825761E-03-9.98015188E-03-4.01961312E-03 1.24133510E-03
 6 13 4.87463517E-04-1.72879861E-03 2.62156612E-03 2.14924944E-03 1.69916522E-03
 6 14-1.10588422E-01-1.54636320E-01-1.87630750E-02-4.64495317E-03-8.73034589E-04
 6 15 1.09187977E-02-7.36853626E-03-1.30016739E-05 1.24598429E-02 1.41033371E-03
 6 16 1.69454454E-03-3.10487826E-03 4.19426587E-04 2.72885187E-03 5.49179225E-04
 6 17-9.01309495E-07-6.92486674E-05-2.22491721E-05-7.79734670E-05 1.61520888E-01
 6 18 9.45080264E-02-7.98956973E-02 1.92846608E-01 1.12826784E-01-9.53946295E-02
 6 19 1.01276693E-01 5.92377020E-02-5.00985582E-02 3.88624383E-03 5.80860358E-04
 6 20-4.46710419E-03 1.88697885E-03 4.10098256E-03 2.76662525E-03 1.20637128E-02
 6 21 7.48804248E-04-1.28125170E-02 4.81303641E-03 1.15006254E-02 8.37067834E-03
 6 22-1.87097325E-04 4.57539038E-04-3.35543750E-03-1.93029589E-03 4.13232384E-03
 6 23-7.54896660E-04 3.69467971E-04 1.00591406E-03 1.31644286E-03 2.45234057E-03
 7  1 7.58140051E-04-1.90359385E-03 5.40535880E-03-9.10843838E-02-9.99268509E-02
 7  2 1.00213686E-02-1.89824468E-01-1.09716125E-01 1.70684917E-02-2.01199506E-01
 7  3-2.11614716E-02 1.23339287E-02-2.80637072E-02-4.38796221E-03-7.29474182E-03
 7  4 1.16827040E-02-1.62182030E-03 1.20603180E-02 9.54952847E-04-4.60014177E-03
 7  5-4.62440199E-03 9.22454376E-03-2.23633377E-03 9.38091814E-03 2.51169781E-03
 7  6 2.32106168E-03 3.19667780E-04-9.94970792E-04 1.09018220E-03 3.51747665E-04
 7  7-3.72664380E-04 9.83145730E-04-2.74136664E-03-1.51906153E-03 7.94682065E-04
 7  8-3.35396731E-02-5.85504230E-02-2.35664793E-02-1.21738396E-03-6.02709234E-05
 7  9-2.52756212E-03 1.68401274E-03-4.21298348E-03-1.58640191E-03 8.21199092E-04
 7 10 7.87416894E-04-1.60861599E-03-6.22709066E-04-6.35252461E-04-1.24236256E-03
 7 11-5.75644561E-02-7.16037280E-02-1.62544619E-02 4.13038107E-03 4.73648360E-03
 7 12-1.71737130E-03 2.66339555E-03 5.96553952E-03-7.93660621E-03-2.58280198E-04
 7 13-1.19261592E-03 1.45089612E-03-1.27880634E-03 1.80161232E-03 1.07071025E-03
 7 14-5.75447990E-02-7.16096239E-02-1.62650292E-02-5.63192678E-03-9.90725599E-04
 7 15 3.11844687E-03-1.00463414E-02-1.49120695E-03-1.63582590E-03-1.88077526E-03
 7 16 1.40111965E-04 1.74066329E-03-5.18229556E-04 1.92778891E-03 2.22883091E-04
 7 17 4.51032699E-04-1.52600282E-01-4.95975660E-02-1.72368780E-01 8.26227251E-02
 7 18 9.57262984E-02 2.80300084E-01 9.45070550E-02 1.15121588E-01 3.27284982E-01
 7 19 4.83592010E-02 6.66636966E-02 1.76665577E-01-3.23824348E-03-4.97683473E-03
 7 20 8.21507821E-03 1.81576957E-03 5.46502416E-03 3.23221901E-03-8.89185768E-03
 7 21-1.42370971E-02 2.31289547E-02 7.02823211E-03 1.37362079E-02 1.00539692E-02
 7 22-2.33655946E-03-5.97284034E-04 2.18186138E-03-1.35295199E-03-1.46257962E-03
 7 23-1.90244028E-03-1.46469460E-03 5.03726375E-03 2.15429261E-03-2.91703628E-04
 8  1 1.18586610E-06-4.17658657E-06-2.55376194E-06 3.75434849E-05-1.10897954E-01
 8  2-6.50600722E-02 5.49187344E-02-1.15455989E-01-6.77281895E-02 5.71937411E-02
 8  3-4.14451589E-02-2.43190210E-02 2.05269124E-02-1.15868969E-02-4.09135554E-03
 8  4 1.56782524E-02-7.95103758E-03-1.49624627E-02-8.73030894E-03-2.07117701E-02
 8  5-2.27741044E-03 2.29891806E-02-9.24539302E-03-2.08833623E-02-1.46040161E-02
 8  6-1.44651740E-03-2.74489799E-03-6.08426265E-03 1.66900000E-03 5.69708260E-03
 8  7-8.90677575E-04 2.46581232E-03 2.83138432E-03 2.01366710E-03 2.64520755E-03
 8  8-2.06871812E-06-1.29944363E-05-5.89526044E-06-5.26929654E-04-3.10229083E-04
 8  9 2.61692763E-04-2.22227816E-03-1.30532067E-03 1.11024389E-03-1.84436576E-03
 8 10-4.69273442E-05 1.89129311E-03-6.70329568E-04-1.67818617E-03-1.26870844E-03
 8 11-1.07706260E-01-1.86990061E-01-6.91995075E-02 6.22240914E-03 4.91944662E-03
 8 12 8.52177683E-04 9.73059955E-03 1.10923097E-02 4.03427968E-03-1.08147329E-03
 8 13-6.82277717E-04 1.76375101E-03-2.05484891E-03-2.45847102E-04-2.58881662E-04
 8 14 1.07703327E-01 1.86946003E-01 6.91956423E-02 4.70525507E-03 1.49169650E-03
 8 15-6.26507364E-03 8.17639759E-03-5.85115998E-04-1.28966857E-02 1.62355933E-04
 8 16-9.38748282E-04 7.76392349E-04 1.46608349E-04-2.45085479E-03-6.87910311E-04
 8 17-6.84442758E-07 1.27428139E-06 3.67692827E-07 8.78916886E-06 2.68552439E-01
 8 18 1.57563962E-01-1.32993677E-01 3.17599665E-01 1.86346166E-01-1.57281142E-01
 8 19 2.31979902E-01 1.36099098E-01-1.14871528E-01 1.67525443E-03 2.33170800E-04
 8 20-1.90842523E-03 7.97287386E-04 1.74526064E-03 1.19175467E-03 8.75421017E-03
 8 21-1.81234327E-03-6.94186689E-03 1.18190291E-03 5.59589738E-03 5.63502713E-03
 8 22 5.01983535E-04 2.20186164E-03-8.48914829E-04-3.41651779E-03 1.98483629E-03
 8 23-4.02597179E-04-8.45897533E-04-2.70884406E-04 4.62410415E-04 1.70960628E-03
 9  1 1.50281520E-03-2.27977905E-02-9.36431861E-03 3.33769998E-02 6.86186967E-02
 9  2-1.30426556E-01-1.59708714E-02 8.41813457E-02-1.57640901E-01-1.67871203E-02
 9  3 4.99561114E-02-9.55745103E-02-1.22994414E-02 1.93189691E-03 8.44313999E-03
 9  4-1.03750369E-02-1.47413045E-02 3.16122504E-03-8.76307185E-03 8.69569494E-03
 9  5 5.64004265E-03-1.43357376E-02-1.70433974E-02 6.81613359E-03-2.27643945E-02
 9  6-9.07549866E-04-4.14791697E-03 2.38864050E-03-8.29710188E-05-2.60375895E-03
 9  7 3.20639888E-03-6.00938574E-04-1.98879296E-03 5.64798561E-03 3.69788254E-03
 9  8 1.43639908E-01 2.96596704E-01 1.35385048E-01 1.03844707E-03 4.82572497E-03
 9  9 7.81117155E-03 6.34634584E-03 1.55118192E-02 3.11761243E-02-1.74639726E-03
 9 10 3.34341455E-03-1.59701729E-03-8.91731749E-04-2.77041523E-03 4.15220529E-03
 9 11-4.06062833E-02-8.43934566E-02-3.81509856E-02 4.36877724E-03-1.14703283E-03
 9 12-3.61300691E-04 1.32454201E-02-6.00481757E-03-1.96400440E-03-2.18700646E-03
 9 13 2.10183681E-03 8.51696490E-05-7.33254227E-04 9.37788696E-05 2.08706167E-04
 9 14-4.06189423E-02-8.44351964E-02-3.82010283E-02-5.05909672E-04-4.00694828E-03
 9 15 2.05361432E-03-2.14076139E-04-1.39033652E-02 4.70933019E-03 5.98696741E-04
 9 16 5.79921900E-05-6.56688931E-04-1.80202403E-03 1.61955808E-04 1.71206062E-03
 9 17 6.50612140E-04-2.26045014E-02-7.73225522E-03-4.93460773E-02-1.71521994E-01
 9 18 2.74905552E-01-2.07011789E-02-2.08523758E-01 3.32323085E-01-2.74049764E-02
 9 19-1.73726879E-01 2.81107470E-01-1.78107334E-02-8.12673993E-05 9.80059747E-04
 9 20-8.98792348E-04-2.83406455E-04-9.25330408E-04 5.34614247E-04-1.78778537E-03
 9 21 4.01151091E-03-2.22372554E-03 3.61917892E-04-4.81023147E-03 5.58590171E-03
 9 22 1.88386577E-03 4.13412165E-04-2.98950439E-04 1.80690828E-04-6.67557252E-04
 9 23-2.50861097E-03 1.06864135E-03-1.88601822E-05-7.35341451E-04 3.50190251E-04
10  1-3.63295018E-03-9.66413082E-02-3.16115348E-02-5.28153162E-01-1.40609633E-01
10  2 2.12400115E-01-3.22897490E-02-2.06157798E-01 2.98172809E-01-6.29874169E-02
10  3-3.80403806E-01 5.40341954E-01-1.28018872E-01-1.02708170E-03 1.34748297E-02
10  4-1.24477480E-02-9.09430181E-03-7.69471013E-03 3.27357448E-03-6.09013547E-03
10  5 2.06185311E-02-1.45283956E-02-2.63214436E-02 1.65092294E-03 2.65629978E-03
10  6-1.23986173E-03-1.73931093E-03 1.86529599E-03-1.28733777E-03-2.31785946E-03
10  7-8.16934311E-04-1.84697715E-04 2.48038338E-03 3.62086826E-03 9.14157182E-04
10  8 1.32870281E-01 3.89358142E-01 1.04658853E+00 3.97665434E-03-1.27024454E-02
10  9-7.01330740E-03-3.36121195E-03-1.53280443E-02-2.49292725E-02 1.09835157E-03
10 10-9.87209168E-04-1.11142406E-04 3.63485678E-05 8.56422088E-04-2.29869878E-03
10 11-1.64247769E-02 1.01659252E-02 3.71413363E-02-3.70835039E-03 8.15802373E-03
10 12-2.51214971E-03-2.05091690E-02 6.42359189E-03-9.98533135E-03 3.27684799E-03
10 13-2.34010224E-03-9.36745752E-04-1.42794243E-03 5.13530499E-04 1.21460620E-03
10 14-1.64453100E-02 1.00992556E-02 3.71120220E-02-6.63116353E-03 6.44200071E-03
10 15-1.06253249E-03-5.67956983E-03 1.51195608E-02-1.73348092E-02-3.00396238E-03
10 16 2.13934335E-03 8.64619034E-04 8.52670661E-04 2.12144080E-04-2.19810888E-03
10 17-4.65981218E-03-1.15712929E-01-3.93273760E-02-2.49812227E-01-7.74675506E-03
10 18-2.55523980E-02-4.59403297E-02-1.52245771E-02-2.80044070E-02-6.39376161E-02
10 19 1.38555320E-02-7.78457794E-02-6.42814113E-02-1.39031938E-03 2.22037689E-03
10 20-8.30057519E-04-1.23002580E-04-2.22514510E-03 3.46972933E-03-3.48277498E-03
10 21 1.48497525E-02-1.13669775E-02-7.26171095E-03-1.04374243E-02 9.33158509E-03
10 22 4.09140891E-04-1.25908200E-03-8.39451805E-04-9.54464158E-04-1.12359518E-03
10 23 2.00700692E-03 2.24983796E-03-2.55592702E-03 2.64369992E-03 3.41798691E-04
11  1 1.40805461E-02 3.20016533E-01 9.94110529E-02 1.74242265E+00-1.54962844E-03
11  2 7.49153362E-02 8.57360137E-02-7.83614435E-05 1.01757734E-01 1.20344120E-01
11  3-2.56170780E-02 3.14599930E-01 3.20828508E-01-4.56840864E-03 1.14325730E-02
11  4-6.86416435E-03-1.34621893E-02 2.07303707E-04 4.17494114E-03 2.24304608E-03
11  5 8.55255665E-03-1.07956027E-02-1.06596537E-02-9.96088334E-04-6.06740554E-03
11  6 6.74685933E-05-1.28473878E-03 9.39635147E-04-2.23312606E-04-1.35142923E-03
11  7-1.75236249E-04 9.07763886E-05 8.47176322E-05 1.94697055E-03 1.24012455E-03
11  8 3.64085787E-02 1.55215490E-01-1.18268709E-01-2.53790302E-03 7.07672425E-03
11  9 3.25483456E-03-5.13455094E-03 1.28908567E-03-8.81910044E-03-1.36017330E-03
11 10 1.55787422E-03-1.97700925E-04-1.97361827E-03 3.88737936E-04 1.60897911E-03
11 11-6.01914095E-02-1.97886961E-01-1.17652722E+00-1.53296172E-02-7.66883053E-03
11 12 1.24531388E-03 5.51916715E-04 1.91124631E-02 7.59919718E-03 2.29241501E-03
11 13-8.36213249E-04-1.45620176E-03-1.75242453E-04-8.96346145E-04-5.93838085E-04
11 14-6.02212667E-02-1.97728603E-01-1.17672329E+00 1.03987823E-02 7.42461466E-03
11 15-1.15032877E-02-9.46331902E-03 1.32153535E-02 1.25107477E-02-2.03624445E-04
11 16 1.11343924E-03-9.09814792E-04 9.03836677E-04-8.22069489E-04-1.91718654E-03
11 17 1.89054568E-03-2.07517628E-02-8.33393621E-03-7.80335760E-02-1.49287838E-02
11 18-2.76069786E-02-6.28918553E-02-1.93185225E-02-2.81047527E-02-7.23585320E-02
11 19-8.63757669E-03-9.04518519E-02-1.24615184E-01-1.12587450E-03 4.74385684E-05
11 20 1.07843593E-03-4.30022478E-05 3.31378709E-04 1.74306481E-03-5.75345777E-03
11 21 2.90819947E-03 2.84525830E-03-8.16656671E-03 6.07692678E-03 4.59160029E-03
11 22-5.13924759E-04-2.32408054E-04-3.10879036E-05-6.57898848E-04-3.82611385E-04
11 23 3.32759340E-04 4.24320185E-04 3.56743078E-04 9.69706973E-04-3.51301382E-04
12  1-4.61211258E-06 1.17124606E-04 1.93221527E-05 8.79848047E-04-2.01900181E-01
12  2-1.18590817E-01 9.98422265E-02-2.67657914E-01-1.57271117E-01 1.32038815E-01
12  3-8.07005702E-01-4.73823745E-01 3.97170461E-01 3.75391712E-04 5.91698288E-03
12  4-6.29237460E-03 5.93938488E-03 7.16365838E-03 1.39333138E-03 1.37759694E-02
12  5 3.95392729E-02-5.33152422E-02 4.35885129E-02 5.83867040E-02 1.73387061E-02
12  6-1.17695581E-03-4.61012529E-03-5.79036659E-04 6.17342112E-03-1.31699027E-03
12  7 2.80179296E-04 2.09384947E-03 1.29887263E-03 1.17109939E-05-2.06085108E-03
12  8-1.15397264E-05-5.73593669E-05-1.63083516E-03-4.76088914E-03-2.77177109E-03
12  9 2.35013283E-03-4.46829907E-03-2.58002605E-03 2.25089155E-03 1.35716087E-03
12 10-1.30654335E-03-5.06175277E-05-8.26066335E-04-3.38934534E-04 6.76502178E-04
12 11 3.88361909E-02 3.07243718E-02 1.66814383E+00 1.55612231E-02 1.36356097E-02
12 12 7.72009822E-03 1.50318505E-02 1.18623298E-02-7.98172074E-03-8.73433896E-04
12 13-1.27834954E-04 1.00126885E-03-1.35199948E-03-4.29738037E-04-4.77124913E-04
12 14-3.87706429E-02-2.99208605E-02-1.66642618E+00 9.24795405E-03 9.21693870E-04
12 15-2.00480624E-02 1.76045663E-02 7.25205976E-03-8.42455109E-03-3.27580887E-04
12 16-6.33293357E-04 9.60874245E-04 2.00607711E-04-1.50898773E-03-4.84792066E-04
12 17 1.92028743E-05-2.06419878E-04-7.83946372E-05-1.88319346E-03 4.64488799E-02
12 18 2.72464701E-02-2.31871900E-02 4.39862439E-02 2.58360061E-02-2.21244807E-02
12 19 1.82551132E-01 1.07132875E-01-9.11691864E-02-4.00526618E-03-3.25940762E-04
12 20 4.33120694E-03-1.67143002E-03-3.89578917E-03-2.80489269E-03-7.18314980E-03
12 21 2.63782169E-03 4.54532811E-03 1.57119672E-04-3.30925021E-03-4.43059521E-03
12 22 1.07937052E-04 1.05120540E-03 2.10979564E-03-3.24890676E-04-2.39173302E-03
12 23 5.93619378E-04-4.38854859E-04-7.38432130E-04-1.08544937E-03-7.43186119E-04
13  1-2.33584677E-03-1.09913915E-01-1.71667577E-02-1.02379780E+00-2.70623444E-03
13  2 8.85016749E-02 1.00311513E-01 5.85355840E-02 1.80949357E-01 3.33832507E-01
13  3 4.88990987E-01 4.42873018E-01 1.51556697E+00-1.18603539E-02-1.08124839E-02
13  4 2.26728378E-02-5.07300839E-03 2.21645379E-02 7.69003198E-03 5.94568196E-02
13  5 2.75548701E-02-8.70116897E-02 1.22191111E-02-6.46022194E-02-6.54693570E-02
13  6-5.08207056E-03-4.03289486E-03 6.80679503E-03 1.46655880E-03-1.26087784E-03
13  7 1.85602783E-03-7.87139599E-03 4.96228531E-03 3.94413743E-03 4.45057479E-03
13  8 7.37478467E-04 4.70866799E-03 1.09862612E+00 6.98046627E-03-1.06428870E-02
13  9 1.51290274E-03 2.04165443E-03-2.56684495E-02-2.63005642E-02 6.27004224E-04
13 10-2.22441442E-03 1.59741019E-03-2.15067271E-03 4.67260886E-03-3.99912342E-03
13 11-2.22127492E-02-2.28407410E-01-3.84258917E-01 1.84239112E-03 3.01985652E-04
13 12 1.34397955E-02 2.37521394E-02 2.40550870E-02 5.94974409E-02-9.30350916E-04
13 13-2.31967895E-03 3.25002987E-03-2.30589841E-03-5.02202757E-03-4.78640681E-03
13 14-2.23105187E-02-2.28441224E-01-3.89256924E-01 7.70254848E-03 3.72325701E-03
13 15 1.04867713E-02 1.32633340E-02 1.79036447E-02 6.47473039E-02 4.39103184E-03
13 16 1.48418013E-03-5.87521197E-03 3.23983952E-03 4.08457347E-03-4.03619249E-04
13 17-1.55632114E-02 1.41104835E-01 5.40113816E-02 1.40861806E+00 3.96444026E-02
13 18 2.40621096E-02 1.08348757E-01 8.63563913E-02 2.49476017E-02 2.03733882E-01
13 19 1.88021388E-01 9.22327181E-02 4.88074912E-01-7.72300779E-05 3.07438046E-03
13 20-2.99715038E-03-1.23386212E-03-2.63329666E-03 1.12791789E-03-1.61110333E-02
13 21-1.11837621E-02 2.72947954E-02-5.37978363E-03 2.42156863E-02 1.37911064E-02
13 22-2.24294971E-03-8.00908680E-04 1.87090984E-03-1.24964790E-03-1.30072961E-03
13 23-9.17572948E-04-1.20935934E-03 3.92680576E-03 2.32417965E-03-1.59259210E-04
14  1 1.23677781E-02-2.64936498E-02 3.43843073E-04-1.73485388E-01 2.79726582E-02
14  2-8.38310663E-02-4.28110824E-02 8.51177243E-02-3.00078388E-02 1.36127476E-01
14  3-2.21680988E-01 1.02300569E+00 7.63571326E-01-1.66932197E-02 1.70875124E-02
14  4-3.94292684E-04-1.83944153E-02 1.69206631E-03 2.28333792E-02 1.20229690E-01
14  5-6.83504546E-02-5.18792354E-02 1.50574874E-01-9.81576772E-02-1.16091443E-01
14  6 1.16229018E-02 4.73000908E-03-3.93818987E-03 5.77488264E-03 2.57875817E-03
14  7-8.82052094E-03 2.70487799E-03-6.77323822E-03-1.21208557E-02 2.08388386E-03
14  8 7.00792444E-02 1.08443712E+00-6.16485119E-01-1.09679598E-02 2.12376318E-02
14  9 3.00695660E-03-7.02500926E-02 1.31462788E-01 1.38064308E-02-4.06928513E-03
14 10 9.16382705E-03-5.09454193E-03-1.17749316E-02 1.24474801E-03 3.23100506E-03
14 11-3.47872777E-02-5.63756812E-01 2.78940966E-01 5.70322444E-03 1.69571808E-02
14 12 5.26160091E-03 5.34221900E-02 5.81990079E-02 8.01489977E-02 6.17323662E-04
14 13-5.72832220E-04-4.44914421E-05-8.01149618E-03-6.95345044E-03-2.12715642E-03
14 14-3.47947693E-02-5.63580400E-01 2.79230745E-01-1.07118836E-02 7.32213291E-03
14 15 1.33898281E-02-6.75329339E-03 2.28941244E-02 1.09951227E-01 7.01978758E-04
14 16 8.43856240E-03-9.14054116E-03 8.88364192E-04 3.61901097E-03-3.00635213E-04
14 17-1.72616737E-03 1.01433487E-02 1.43038065E-03 5.79153054E-01-6.66320887E-03
14 18-1.23074127E-02-2.80336613E-02 2.03867653E-02-2.24137150E-02 1.46003644E-02
14 19 8.71925190E-02-1.11744244E-01 4.38730042E-02 3.17784620E-04 2.68202510E-04
14 20-5.85987130E-04-1.24144965E-03 7.73595479E-04-1.25743770E-03-3.29050197E-03
14 21 2.55100983E-03 7.39492142E-04-2.98932220E-02 2.68557464E-02-1.58447099E-02
14 22-1.13442241E-03 1.80898116E-03-1.19132902E-03-1.61269882E-03 5.97085750E-04
14 23-1.05110446E-03 1.00124986E-03 2.57309184E-03-8.14304086E-04-3.05938355E-03
15  1 1.59651646E-05 2.40859545E-05 1.75736551E-06 6.49164871E-04-3.67151383E-02
15  2-2.15814671E-02 1.82101108E-02 2.92567551E-01 1.71708703E-01-1.44908700E-01
15  3 1.85841948E+00 1.09054300E+00-9.20860369E-01 4.83470510E-04-9.69355266E-03
15  4 9.21008215E-03-9.36985563E-03-1.08762935E-02-1.57820218E-03 2.29412254E-01
15  5 3.87581703E-02-2.68170424E-01 1.15969526E-01 2.47118435E-01 1.64486535E-01
15  6-1.48814860E-02-2.05648603E-02-3.38004053E-03 3.59861653E-02-1.52902642E-02
15  7 7.72982630E-03 1.98250644E-02 1.22357823E-02-8.39550998E-03-5.84863036E-03
15  8-2.39373418E-05-4.87336461E-06 2.04919580E-04 4.71508928E-03 2.76450067E-03
15  9-2.33603380E-03 1.54723247E-01 9.08374896E-02-7.66153262E-02-7.87332337E-03
15 10 3.56902839E-03 4.30429497E-03 8.38312028E-04-2.77267188E-03-4.67767292E-03
15 11-5.36736937E-02-1.32507350E+00-8.06083728E-01 1.57510337E-02 1.52065604E-02
15 12-1.91647136E-03 2.55728674E-01 1.04740764E-01-5.64172003E-02-1.16250944E-02
15 13-4.16693433E-03 1.57920287E-02-1.87005400E-02-1.26725817E-03 2.79258971E-03
15 14 5.36667821E-02 1.32481847E+00 8.05836192E-01 1.64758338E-02 3.70152028E-03
15 15-1.40516041E-02 1.78484690E-01 1.50025605E-01-1.58598661E-01 4.95572214E-03
15 16-9.58202273E-03 4.62630058E-03 2.90308838E-03-2.06254781E-02-1.00492680E-02
15 17 4.40977707E-06-2.59714486E-05-7.55969117E-06-5.01975097E-04-1.11747299E-01
15 18-6.55496880E-02 5.53733059E-02-1.23001977E-01-7.21335638E-02 6.09314896E-02
15 19-1.56879985E-01-9.20897661E-02 7.74920575E-02-4.93046453E-04-9.87834296E-05
15 20 5.91829883E-04-2.63907018E-04-5.49291019E-04-3.55037356E-04 3.60183969E-02
15 21-1.78939487E-02-1.81244482E-02-5.43199661E-03 1.07956100E-02 2.10937086E-02
15 22 7.82420861E-04-3.59060147E-04-1.14564724E-04-3.52951203E-04 9.35905297E-04
15 23-6.01878056E-04-7.82200591E-04-4.47849682E-04 8.34680940E-04-3.71575094E-04
16  1 8.46345452E-03 6.89468719E-02 2.13839796E-02 1.85164902E-02 1.59999364E-01
16  2-1.63795524E-01 1.29014714E-01 8.61786784E-02-1.55885745E-01-1.03684412E-02
16  3-8.52638448E-01 1.14292552E+00-3.66562423E-01-7.60099488E-03-9.41224207E-03
16  4 1.70132370E-02-4.24418887E-03 1.82542864E-02 2.61712872E-03-6.70457522E-03
16  5-3.26296102E-01 3.33000677E-01 1.55031289E-01 2.59283430E-01-7.95154399E-02
16  6 2.86578401E-02 2.28312759E-02-3.41999302E-02-6.94346683E-03 5.71595469E-03
16  7-1.75569457E-02 4.01680666E-02-2.08915813E-02-2.36879042E-02-2.30095153E-02
16  8-1.53102352E-01-7.91410699E-02 1.78943539E+00 5.05881760E-03-9.77567789E-03
16  9-1.35468058E-03-1.61213962E-01 3.87834522E-01 1.33848214E-01-1.13681816E-02
16 10 1.88987594E-02-7.53057782E-03-1.70230930E-02-3.56298268E-03 1.67621433E-02
16 11-5.54998577E-02-2.65884686E-01-9.70747959E-02-2.44090645E-03 8.11228583E-03
16 12-1.56928404E-03-2.09647586E-02-1.05211054E-01 3.34466072E-02 2.56219847E-03
16 13 3.86706631E-03-6.42926477E-03 1.21837420E-03-1.80579739E-03 1.59656092E-03
16 14-5.55180859E-02-2.66545897E-01-9.74797486E-02-6.34178231E-03 5.82225179E-03